NAME : pr144.45886.tour
COMMENT : Length = 45886
COMMENT : Found by LKH [Keld Helsgaun] Wed May 29 17:05:41 2013
TYPE : TOUR
DIMENSION : 29
TOUR_SECTION
6
23
40
20
19
14
43
70
77
76
93
92
116
130
134
139
140
111
110
106
103
88
79
60
54
53
34
30
27
-1
EOF
